p edge 144 2596
e 1 14 8
e 1 27 8
e 1 40 10
e 1 53 9
e 1 66 5
e 1 79 7
e 1 92 3
e 1 105 2
e 1 118 1
e 1 131 10
e 1 144 6
e 1 2 3
e 1 3 9
e 1 4 10
e 1 5 6
e 1 6 5
e 1 7 4
e 1 8 5
e 1 9 3
e 1 10 3
e 1 11 6
e 1 12 2
e 1 13 9
e 1 25 1
e 1 37 8
e 1 49 6
e 1 61 6
e 1 73 3
e 1 85 4
e 1 97 2
e 1 109 3
e 1 121 5
e 1 133 9
e 2 15 9
e 2 28 4
e 2 41 7
e 2 54 9
e 2 67 10
e 2 80 2
e 2 93 5
e 2 106 5
e 2 119 10
e 2 132 1
e 2 13 4
e 2 3 3
e 2 4 10
e 2 5 9
e 2 6 3
e 2 7 5
e 2 8 7
e 2 9 2
e 2 10 5
e 2 11 4
e 2 12 1
e 2 14 1
e 2 26 9
e 2 38 3
e 2 50 2
e 2 62 2
e 2 74 1
e 2 86 3
e 2 98 6
e 2 110 5
e 2 122 10
e 2 134 7
e 3 16 6
e 3 29 6
e 3 42 6
e 3 55 1
e 3 68 2
e 3 81 3
e 3 94 8
e 3 107 7
e 3 120 8
e 3 14 3
e 3 25 5
e 3 4 8
e 3 5 2
e 3 6 8
e 3 7 5
e 3 8 10
e 3 9 4
e 3 10 8
e 3 11 9
e 3 12 2
e 3 15 5
e 3 27 3
e 3 39 8
e 3 51 6
e 3 63 6
e 3 75 10
e 3 87 4
e 3 99 7
e 3 111 4
e 3 123 8
e 3 135 10
e 4 17 8
e 4 30 7
e 4 43 1
e 4 56 5
e 4 69 7
e 4 82 4
e 4 95 7
e 4 108 4
e 4 15 7
e 4 26 3
e 4 37 8
e 4 5 2
e 4 6 8
e 4 7 6
e 4 8 8
e 4 9 8
e 4 10 10
e 4 11 7
e 4 12 10
e 4 16 2
e 4 28 2
e 4 40 6
e 4 52 1
e 4 64 9
e 4 76 6
e 4 88 3
e 4 100 9
e 4 112 4
e 4 124 1
e 4 136 4
e 5 18 3
e 5 31 5
e 5 44 7
e 5 57 2
e 5 70 6
e 5 83 7
e 5 96 4
e 5 16 6
e 5 27 9
e 5 38 3
e 5 49 10
e 5 6 7
e 5 7 8
e 5 8 9
e 5 9 1
e 5 10 9
e 5 11 2
e 5 12 5
e 5 17 3
e 5 29 1
e 5 41 4
e 5 53 7
e 5 65 3
e 5 77 10
e 5 89 5
e 5 101 10
e 5 113 1
e 5 125 7
e 5 137 1
e 6 19 9
e 6 32 6
e 6 45 1
e 6 58 2
e 6 71 5
e 6 84 6
e 6 17 10
e 6 28 10
e 6 39 2
e 6 50 4
e 6 61 5
e 6 7 6
e 6 8 8
e 6 9 2
e 6 10 9
e 6 11 2
e 6 12 7
e 6 18 9
e 6 30 9
e 6 42 2
e 6 54 10
e 6 66 5
e 6 78 2
e 6 90 9
e 6 102 8
e 6 114 4
e 6 126 7
e 6 138 9
e 7 20 9
e 7 33 1
e 7 46 5
e 7 59 10
e 7 72 9
e 7 18 2
e 7 29 8
e 7 40 2
e 7 51 1
e 7 62 2
e 7 73 3
e 7 8 3
e 7 9 9
e 7 10 1
e 7 11 5
e 7 12 2
e 7 19 4
e 7 31 5
e 7 43 2
e 7 55 10
e 7 67 8
e 7 79 4
e 7 91 9
e 7 103 7
e 7 115 7
e 7 127 4
e 7 139 9
e 8 21 1
e 8 34 7
e 8 47 8
e 8 60 6
e 8 19 3
e 8 30 5
e 8 41 10
e 8 52 2
e 8 63 1
e 8 74 2
e 8 85 6
e 8 9 10
e 8 10 9
e 8 11 3
e 8 12 4
e 8 20 10
e 8 32 6
e 8 44 7
e 8 56 5
e 8 68 10
e 8 80 5
e 8 92 8
e 8 104 9
e 8 116 5
e 8 128 9
e 8 140 6
e 9 22 7
e 9 35 6
e 9 48 1
e 9 20 10
e 9 31 9
e 9 42 6
e 9 53 1
e 9 64 2
e 9 75 3
e 9 86 6
e 9 97 4
e 9 10 3
e 9 11 8
e 9 12 9
e 9 21 1
e 9 33 4
e 9 45 2
e 9 57 9
e 9 69 6
e 9 81 5
e 9 93 3
e 9 105 7
e 9 117 8
e 9 129 9
e 9 141 5
e 10 23 3
e 10 36 6
e 10 21 5
e 10 32 3
e 10 43 7
e 10 54 10
e 10 65 1
e 10 76 9
e 10 87 9
e 10 98 2
e 10 109 2
e 10 11 10
e 10 12 8
e 10 22 7
e 10 34 8
e 10 46 6
e 10 58 9
e 10 70 1
e 10 82 5
e 10 94 3
e 10 106 1
e 10 118 8
e 10 130 2
e 10 142 2
e 11 24 1
e 11 22 2
e 11 33 5
e 11 44 5
e 11 55 1
e 11 66 5
e 11 77 10
e 11 88 9
e 11 99 9
e 11 110 1
e 11 121 4
e 11 12 3
e 11 23 8
e 11 35 8
e 11 47 10
e 11 59 8
e 11 71 10
e 11 83 3
e 11 95 7
e 11 107 9
e 11 119 3
e 11 131 8
e 11 143 8
e 12 23 1
e 12 34 3
e 12 45 2
e 12 56 5
e 12 67 8
e 12 78 4
e 12 89 8
e 12 100 5
e 12 111 7
e 12 122 3
e 12 133 8
e 12 24 2
e 12 36 6
e 12 48 2
e 12 60 3
e 12 72 9
e 12 84 8
e 12 96 6
e 12 108 5
e 12 120 6
e 12 132 5
e 12 144 7
e 13 26 8
e 13 39 10
e 13 52 6
e 13 65 7
e 13 78 9
e 13 91 3
e 13 104 7
e 13 117 10
e 13 130 1
e 13 143 7
e 13 14 4
e 13 15 7
e 13 16 5
e 13 17 3
e 13 18 4
e 13 19 6
e 13 20 10
e 13 21 4
e 13 22 3
e 13 23 5
e 13 24 6
e 13 25 5
e 13 37 10
e 13 49 5
e 13 61 5
e 13 73 4
e 13 85 2
e 13 97 8
e 13 109 5
e 13 121 4
e 13 133 10
e 14 27 5
e 14 40 8
e 14 53 1
e 14 66 5
e 14 79 3
e 14 92 8
e 14 105 7
e 14 118 8
e 14 131 3
e 14 144 7
e 14 25 6
e 14 15 8
e 14 16 6
e 14 17 1
e 14 18 6
e 14 19 6
e 14 20 1
e 14 21 1
e 14 22 3
e 14 23 8
e 14 24 10
e 14 26 5
e 14 38 1
e 14 50 5
e 14 62 1
e 14 74 7
e 14 86 5
e 14 98 9
e 14 110 1
e 14 122 9
e 14 134 10
e 15 28 4
e 15 41 9
e 15 54 3
e 15 67 2
e 15 80 2
e 15 93 4
e 15 106 8
e 15 119 1
e 15 132 10
e 15 26 7
e 15 37 6
e 15 16 5
e 15 17 1
e 15 18 6
e 15 19 5
e 15 20 1
e 15 21 9
e 15 22 5
e 15 23 6
e 15 24 2
e 15 27 9
e 15 39 10
e 15 51 10
e 15 63 3
e 15 75 8
e 15 87 3
e 15 99 7
e 15 111 2
e 15 123 1
e 15 135 1
e 16 29 9
e 16 42 4
e 16 55 3
e 16 68 4
e 16 81 6
e 16 94 8
e 16 107 10
e 16 120 4
e 16 27 5
e 16 38 7
e 16 49 4
e 16 17 9
e 16 18 8
e 16 19 6
e 16 20 5
e 16 21 3
e 16 22 9
e 16 23 4
e 16 24 10
e 16 28 7
e 16 40 8
e 16 52 1
e 16 64 9
e 16 76 5
e 16 88 10
e 16 100 4
e 16 112 5
e 16 124 3
e 16 136 9
e 17 30 1
e 17 43 10
e 17 56 6
e 17 69 4
e 17 82 4
e 17 95 2
e 17 108 9
e 17 28 9
e 17 39 4
e 17 50 4
e 17 61 1
e 17 18 3
e 17 19 6
e 17 20 5
e 17 21 4
e 17 22 6
e 17 23 6
e 17 24 5
e 17 29 8
e 17 41 1
e 17 53 3
e 17 65 5
e 17 77 6
e 17 89 5
e 17 101 1
e 17 113 8
e 17 125 1
e 17 137 7
e 18 31 8
e 18 44 5
e 18 57 7
e 18 70 3
e 18 83 3
e 18 96 8
e 18 29 9
e 18 40 9
e 18 51 5
e 18 62 2
e 18 73 2
e 18 19 10
e 18 20 9
e 18 21 1
e 18 22 1
e 18 23 5
e 18 24 7
e 18 30 6
e 18 42 8
e 18 54 5
e 18 66 9
e 18 78 10
e 18 90 2
e 18 102 2
e 18 114 3
e 18 126 4
e 18 138 9
e 19 32 4
e 19 45 5
e 19 58 6
e 19 71 1
e 19 84 7
e 19 30 2
e 19 41 8
e 19 52 1
e 19 63 10
e 19 74 8
e 19 85 9
e 19 20 5
e 19 21 9
e 19 22 6
e 19 23 3
e 19 24 1
e 19 31 6
e 19 43 1
e 19 55 10
e 19 67 5
e 19 79 6
e 19 91 4
e 19 103 2
e 19 115 6
e 19 127 7
e 19 139 2
e 20 33 7
e 20 46 9
e 20 59 6
e 20 72 6
e 20 31 9
e 20 42 10
e 20 53 2
e 20 64 7
e 20 75 3
e 20 86 4
e 20 97 8
e 20 21 6
e 20 22 9
e 20 23 3
e 20 24 9
e 20 32 5
e 20 44 7
e 20 56 6
e 20 68 9
e 20 80 7
e 20 92 2
e 20 104 9
e 20 116 1
e 20 128 7
e 20 140 3
e 21 34 3
e 21 47 1
e 21 60 5
e 21 32 9
e 21 43 4
e 21 54 2
e 21 65 8
e 21 76 8
e 21 87 6
e 21 98 3
e 21 109 8
e 21 22 3
e 21 23 1
e 21 24 8
e 21 33 10
e 21 45 9
e 21 57 8
e 21 69 6
e 21 81 5
e 21 93 6
e 21 105 8
e 21 117 6
e 21 129 1
e 21 141 7
e 22 35 7
e 22 48 10
e 22 33 6
e 22 44 10
e 22 55 7
e 22 66 9
e 22 77 7
e 22 88 9
e 22 99 2
e 22 110 6
e 22 121 6
e 22 23 10
e 22 24 6
e 22 34 3
e 22 46 5
e 22 58 2
e 22 70 2
e 22 82 1
e 22 94 7
e 22 106 3
e 22 118 9
e 22 130 2
e 22 142 8
e 23 36 2
e 23 34 10
e 23 45 6
e 23 56 8
e 23 67 9
e 23 78 1
e 23 89 8
e 23 100 8
e 23 111 10
e 23 122 7
e 23 133 4
e 23 24 7
e 23 35 5
e 23 47 2
e 23 59 3
e 23 71 6
e 23 83 6
e 23 95 4
e 23 107 1
e 23 119 6
e 23 131 3
e 23 143 5
e 24 35 4
e 24 46 9
e 24 57 7
e 24 68 3
e 24 79 10
e 24 90 3
e 24 101 9
e 24 112 4
e 24 123 7
e 24 134 4
e 24 36 3
e 24 48 1
e 24 60 1
e 24 72 3
e 24 84 3
e 24 96 1
e 24 108 6
e 24 120 10
e 24 132 4
e 24 144 7
e 25 38 10
e 25 51 2
e 25 64 6
e 25 77 3
e 25 90 7
e 25 103 1
e 25 116 10
e 25 129 8
e 25 142 9
e 25 26 6
e 25 27 6
e 25 28 10
e 25 29 6
e 25 30 9
e 25 31 1
e 25 32 8
e 25 33 10
e 25 34 7
e 25 35 10
e 25 36 4
e 25 37 5
e 25 49 7
e 25 61 5
e 25 73 8
e 25 85 5
e 25 97 6
e 25 109 9
e 25 121 2
e 25 133 4
e 26 39 4
e 26 52 9
e 26 65 4
e 26 78 3
e 26 91 9
e 26 104 5
e 26 117 1
e 26 130 1
e 26 143 4
e 26 37 5
e 26 27 5
e 26 28 10
e 26 29 6
e 26 30 5
e 26 31 4
e 26 32 9
e 26 33 9
e 26 34 4
e 26 35 9
e 26 36 8
e 26 38 3
e 26 50 4
e 26 62 3
e 26 74 10
e 26 86 5
e 26 98 5
e 26 110 2
e 26 122 1
e 26 134 9
e 27 40 9
e 27 53 10
e 27 66 7
e 27 79 8
e 27 92 4
e 27 105 8
e 27 118 3
e 27 131 3
e 27 144 3
e 27 38 1
e 27 49 7
e 27 28 9
e 27 29 2
e 27 30 10
e 27 31 2
e 27 32 5
e 27 33 6
e 27 34 3
e 27 35 2
e 27 36 5
e 27 39 7
e 27 51 3
e 27 63 6
e 27 75 9
e 27 87 1
e 27 99 5
e 27 111 7
e 27 123 3
e 27 135 2
e 28 41 9
e 28 54 10
e 28 67 7
e 28 80 5
e 28 93 5
e 28 106 8
e 28 119 9
e 28 132 1
e 28 39 9
e 28 50 2
e 28 61 7
e 28 29 10
e 28 30 10
e 28 31 3
e 28 32 8
e 28 33 8
e 28 34 8
e 28 35 6
e 28 36 5
e 28 40 5
e 28 52 3
e 28 64 4
e 28 76 8
e 28 88 9
e 28 100 3
e 28 112 7
e 28 124 1
e 28 136 10
e 29 42 2
e 29 55 10
e 29 68 7
e 29 81 10
e 29 94 2
e 29 107 1
e 29 120 8
e 29 40 3
e 29 51 4
e 29 62 5
e 29 73 10
e 29 30 9
e 29 31 5
e 29 32 2
e 29 33 9
e 29 34 6
e 29 35 3
e 29 36 8
e 29 41 9
e 29 53 4
e 29 65 5
e 29 77 6
e 29 89 2
e 29 101 4
e 29 113 6
e 29 125 5
e 29 137 6
e 30 43 7
e 30 56 4
e 30 69 1
e 30 82 4
e 30 95 6
e 30 108 7
e 30 41 9
e 30 52 8
e 30 63 9
e 30 74 5
e 30 85 8
e 30 31 1
e 30 32 1
e 30 33 10
e 30 34 7
e 30 35 9
e 30 36 3
e 30 42 8
e 30 54 3
e 30 66 3
e 30 78 4
e 30 90 8
e 30 102 1
e 30 114 1
e 30 126 4
e 30 138 7
e 31 44 2
e 31 57 1
e 31 70 10
e 31 83 5
e 31 96 2
e 31 42 9
e 31 53 10
e 31 64 1
e 31 75 8
e 31 86 9
e 31 97 1
e 31 32 1
e 31 33 4
e 31 34 7
e 31 35 9
e 31 36 5
e 31 43 5
e 31 55 9
e 31 67 6
e 31 79 10
e 31 91 3
e 31 103 10
e 31 115 6
e 31 127 10
e 31 139 6
e 32 45 1
e 32 58 3
e 32 71 3
e 32 84 2
e 32 43 4
e 32 54 10
e 32 65 4
e 32 76 2
e 32 87 10
e 32 98 3
e 32 109 4
e 32 33 10
e 32 34 2
e 32 35 1
e 32 36 10
e 32 44 6
e 32 56 8
e 32 68 8
e 32 80 3
e 32 92 5
e 32 104 9
e 32 116 10
e 32 128 6
e 32 140 7
e 33 46 2
e 33 59 4
e 33 72 8
e 33 44 10
e 33 55 2
e 33 66 4
e 33 77 10
e 33 88 7
e 33 99 6
e 33 110 7
e 33 121 7
e 33 34 5
e 33 35 8
e 33 36 3
e 33 45 4
e 33 57 9
e 33 69 6
e 33 81 4
e 33 93 7
e 33 105 10
e 33 117 4
e 33 129 4
e 33 141 3
e 34 47 1
e 34 60 9
e 34 45 10
e 34 56 5
e 34 67 3
e 34 78 3
e 34 89 8
e 34 100 9
e 34 111 6
e 34 122 6
e 34 133 4
e 34 35 8
e 34 36 4
e 34 46 3
e 34 58 1
e 34 70 8
e 34 82 1
e 34 94 6
e 34 106 9
e 34 118 4
e 34 130 4
e 34 142 7
e 35 48 4
e 35 46 10
e 35 57 5
e 35 68 2
e 35 79 2
e 35 90 5
e 35 101 5
e 35 112 8
e 35 123 2
e 35 134 8
e 35 36 6
e 35 47 10
e 35 59 9
e 35 71 2
e 35 83 9
e 35 95 6
e 35 107 4
e 35 119 10
e 35 131 2
e 35 143 4
e 36 47 2
e 36 58 8
e 36 69 5
e 36 80 4
e 36 91 6
e 36 102 1
e 36 113 3
e 36 124 10
e 36 135 8
e 36 48 4
e 36 60 7
e 36 72 9
e 36 84 10
e 36 96 4
e 36 108 1
e 36 120 8
e 36 132 1
e 36 144 9
e 37 50 5
e 37 63 8
e 37 76 8
e 37 89 10
e 37 102 5
e 37 115 7
e 37 128 6
e 37 141 5
e 37 38 6
e 37 39 3
e 37 40 5
e 37 41 8
e 37 42 9
e 37 43 1
e 37 44 1
e 37 45 8
e 37 46 4
e 37 47 6
e 37 48 3
e 37 49 2
e 37 61 4
e 37 73 1
e 37 85 10
e 37 97 9
e 37 109 9
e 37 121 3
e 37 133 9
e 38 51 7
e 38 64 6
e 38 77 6
e 38 90 5
e 38 103 3
e 38 116 6
e 38 129 7
e 38 142 10
e 38 49 9
e 38 39 1
e 38 40 3
e 38 41 6
e 38 42 1
e 38 43 6
e 38 44 4
e 38 45 10
e 38 46 5
e 38 47 10
e 38 48 6
e 38 50 4
e 38 62 10
e 38 74 6
e 38 86 10
e 38 98 2
e 38 110 1
e 38 122 10
e 38 134 2
e 39 52 5
e 39 65 7
e 39 78 7
e 39 91 6
e 39 104 3
e 39 117 8
e 39 130 5
e 39 143 5
e 39 50 1
e 39 61 6
e 39 40 4
e 39 41 9
e 39 42 8
e 39 43 5
e 39 44 10
e 39 45 10
e 39 46 4
e 39 47 6
e 39 48 6
e 39 51 8
e 39 63 3
e 39 75 7
e 39 87 7
e 39 99 9
e 39 111 10
e 39 123 7
e 39 135 3
e 40 53 8
e 40 66 6
e 40 79 8
e 40 92 9
e 40 105 4
e 40 118 9
e 40 131 10
e 40 144 3
e 40 51 6
e 40 62 1
e 40 73 9
e 40 41 6
e 40 42 5
e 40 43 7
e 40 44 9
e 40 45 5
e 40 46 10
e 40 47 6
e 40 48 3
e 40 52 7
e 40 64 9
e 40 76 9
e 40 88 7
e 40 100 6
e 40 112 1
e 40 124 5
e 40 136 6
e 41 54 1
e 41 67 4
e 41 80 8
e 41 93 5
e 41 106 8
e 41 119 6
e 41 132 1
e 41 52 8
e 41 63 10
e 41 74 4
e 41 85 1
e 41 42 2
e 41 43 3
e 41 44 5
e 41 45 10
e 41 46 6
e 41 47 4
e 41 48 5
e 41 53 9
e 41 65 5
e 41 77 3
e 41 89 9
e 41 101 7
e 41 113 6
e 41 125 8
e 41 137 6
e 42 55 6
e 42 68 7
e 42 81 2
e 42 94 5
e 42 107 4
e 42 120 4
e 42 53 5
e 42 64 4
e 42 75 6
e 42 86 10
e 42 97 4
e 42 43 4
e 42 44 4
e 42 45 10
e 42 46 9
e 42 47 9
e 42 48 3
e 42 54 5
e 42 66 7
e 42 78 1
e 42 90 5
e 42 102 3
e 42 114 4
e 42 126 10
e 42 138 8
e 43 56 5
e 43 69 3
e 43 82 6
e 43 95 4
e 43 108 6
e 43 54 2
e 43 65 1
e 43 76 9
e 43 87 1
e 43 98 5
e 43 109 8
e 43 44 2
e 43 45 3
e 43 46 1
e 43 47 9
e 43 48 3
e 43 55 4
e 43 67 8
e 43 79 2
e 43 91 3
e 43 103 5
e 43 115 5
e 43 127 9
e 43 139 2
e 44 57 2
e 44 70 7
e 44 83 10
e 44 96 2
e 44 55 9
e 44 66 7
e 44 77 10
e 44 88 2
e 44 99 7
e 44 110 10
e 44 121 9
e 44 45 10
e 44 46 6
e 44 47 1
e 44 48 10
e 44 56 9
e 44 68 2
e 44 80 3
e 44 92 7
e 44 104 3
e 44 116 7
e 44 128 10
e 44 140 5
e 45 58 2
e 45 71 2
e 45 84 6
e 45 56 5
e 45 67 4
e 45 78 1
e 45 89 1
e 45 100 4
e 45 111 3
e 45 122 2
e 45 133 8
e 45 46 2
e 45 47 7
e 45 48 2
e 45 57 4
e 45 69 3
e 45 81 7
e 45 93 1
e 45 105 1
e 45 117 8
e 45 129 8
e 45 141 3
e 46 59 8
e 46 72 4
e 46 57 9
e 46 68 8
e 46 79 3
e 46 90 7
e 46 101 2
e 46 112 8
e 46 123 4
e 46 134 8
e 46 47 10
e 46 48 5
e 46 58 10
e 46 70 7
e 46 82 1
e 46 94 6
e 46 106 4
e 46 118 9
e 46 130 1
e 46 142 1
e 47 60 2
e 47 58 7
e 47 69 7
e 47 80 2
e 47 91 4
e 47 102 5
e 47 113 1
e 47 124 5
e 47 135 8
e 47 48 4
e 47 59 1
e 47 71 9
e 47 83 6
e 47 95 9
e 47 107 7
e 47 119 2
e 47 131 4
e 47 143 9
e 48 59 7
e 48 70 7
e 48 81 8
e 48 92 8
e 48 103 6
e 48 114 5
e 48 125 7
e 48 136 8
e 48 60 3
e 48 72 3
e 48 84 8
e 48 96 2
e 48 108 9
e 48 120 10
e 48 132 7
e 48 144 7
e 49 62 7
e 49 75 4
e 49 88 5
e 49 101 1
e 49 114 9
e 49 127 3
e 49 140 1
e 49 50 1
e 49 51 4
e 49 52 8
e 49 53 8
e 49 54 1
e 49 55 6
e 49 56 4
e 49 57 1
e 49 58 7
e 49 59 7
e 49 60 3
e 49 61 10
e 49 73 4
e 49 85 10
e 49 97 3
e 49 109 9
e 49 121 5
e 49 133 1
e 50 63 7
e 50 76 8
e 50 89 4
e 50 102 6
e 50 115 10
e 50 128 6
e 50 141 6
e 50 61 6
e 50 51 6
e 50 52 6
e 50 53 2
e 50 54 2
e 50 55 8
e 50 56 6
e 50 57 7
e 50 58 10
e 50 59 6
e 50 60 7
e 50 62 8
e 50 74 8
e 50 86 5
e 50 98 3
e 50 110 10
e 50 122 9
e 50 134 1
e 51 64 1
e 51 77 7
e 51 90 7
e 51 103 7
e 51 116 9
e 51 129 1
e 51 142 6
e 51 62 7
e 51 73 1
e 51 52 8
e 51 53 5
e 51 54 5
e 51 55 9
e 51 56 8
e 51 57 10
e 51 58 2
e 51 59 7
e 51 60 10
e 51 63 10
e 51 75 7
e 51 87 10
e 51 99 8
e 51 111 8
e 51 123 3
e 51 135 2
e 52 65 6
e 52 78 3
e 52 91 10
e 52 104 2
e 52 117 5
e 52 130 2
e 52 143 3
e 52 63 10
e 52 74 8
e 52 85 4
e 52 53 5
e 52 54 8
e 52 55 10
e 52 56 7
e 52 57 4
e 52 58 7
e 52 59 1
e 52 60 7
e 52 64 4
e 52 76 7
e 52 88 4
e 52 100 10
e 52 112 4
e 52 124 6
e 52 136 5
e 53 66 2
e 53 79 3
e 53 92 6
e 53 105 4
e 53 118 5
e 53 131 6
e 53 144 1
e 53 64 5
e 53 75 3
e 53 86 6
e 53 97 3
e 53 54 4
e 53 55 9
e 53 56 7
e 53 57 8
e 53 58 5
e 53 59 4
e 53 60 9
e 53 65 1
e 53 77 1
e 53 89 5
e 53 101 5
e 53 113 9
e 53 125 2
e 53 137 6
e 54 67 2
e 54 80 4
e 54 93 8
e 54 106 2
e 54 119 5
e 54 132 8
e 54 65 6
e 54 76 7
e 54 87 1
e 54 98 8
e 54 109 9
e 54 55 3
e 54 56 9
e 54 57 4
e 54 58 5
e 54 59 9
e 54 60 10
e 54 66 6
e 54 78 8
e 54 90 8
e 54 102 4
e 54 114 2
e 54 126 3
e 54 138 4
e 55 68 9
e 55 81 1
e 55 94 5
e 55 107 8
e 55 120 4
e 55 66 3
e 55 77 3
e 55 88 10
e 55 99 4
e 55 110 7
e 55 121 8
e 55 56 7
e 55 57 3
e 55 58 1
e 55 59 3
e 55 60 2
e 55 67 8
e 55 79 5
e 55 91 7
e 55 103 10
e 55 115 9
e 55 127 6
e 55 139 6
e 56 69 5
e 56 82 5
e 56 95 1
e 56 108 9
e 56 67 4
e 56 78 4
e 56 89 3
e 56 100 7
e 56 111 4
e 56 122 4
e 56 133 6
e 56 57 4
e 56 58 4
e 56 59 9
e 56 60 2
e 56 68 2
e 56 80 3
e 56 92 1
e 56 104 9
e 56 116 8
e 56 128 7
e 56 140 2
e 57 70 6
e 57 83 3
e 57 96 2
e 57 68 4
e 57 79 1
e 57 90 9
e 57 101 5
e 57 112 7
e 57 123 5
e 57 134 3
e 57 58 8
e 57 59 2
e 57 60 4
e 57 69 10
e 57 81 6
e 57 93 4
e 57 105 2
e 57 117 5
e 57 129 5
e 57 141 8
e 58 71 10
e 58 84 10
e 58 69 3
e 58 80 7
e 58 91 10
e 58 102 6
e 58 113 7
e 58 124 6
e 58 135 7
e 58 59 2
e 58 60 9
e 58 70 4
e 58 82 5
e 58 94 3
e 58 106 8
e 58 118 4
e 58 130 5
e 58 142 6
e 59 72 5
e 59 70 3
e 59 81 6
e 59 92 1
e 59 103 2
e 59 114 5
e 59 125 7
e 59 136 9
e 59 60 3
e 59 71 1
e 59 83 2
e 59 95 7
e 59 107 6
e 59 119 8
e 59 131 10
e 59 143 5
e 60 71 1
e 60 82 4
e 60 93 10
e 60 104 1
e 60 115 3
e 60 126 1
e 60 137 5
e 60 72 4
e 60 84 5
e 60 96 9
e 60 108 10
e 60 120 8
e 60 132 10
e 60 144 10
e 61 74 5
e 61 87 5
e 61 100 6
e 61 113 2
e 61 126 3
e 61 139 4
e 61 62 4
e 61 63 6
e 61 64 3
e 61 65 7
e 61 66 5
e 61 67 5
e 61 68 10
e 61 69 7
e 61 70 4
e 61 71 5
e 61 72 9
e 61 73 3
e 61 85 2
e 61 97 8
e 61 109 3
e 61 121 4
e 61 133 9
e 62 75 9
e 62 88 2
e 62 101 3
e 62 114 1
e 62 127 10
e 62 140 9
e 62 73 3
e 62 63 2
e 62 64 10
e 62 65 1
e 62 66 9
e 62 67 9
e 62 68 6
e 62 69 9
e 62 70 10
e 62 71 5
e 62 72 2
e 62 74 8
e 62 86 5
e 62 98 4
e 62 110 6
e 62 122 7
e 62 134 2
e 63 76 10
e 63 89 7
e 63 102 1
e 63 115 7
e 63 128 1
e 63 141 2
e 63 74 9
e 63 85 8
e 63 64 9
e 63 65 8
e 63 66 9
e 63 67 3
e 63 68 2
e 63 69 6
e 63 70 6
e 63 71 3
e 63 72 10
e 63 75 9
e 63 87 3
e 63 99 9
e 63 111 10
e 63 123 1
e 63 135 9
e 64 77 4
e 64 90 8
e 64 103 3
e 64 116 3
e 64 129 6
e 64 142 2
e 64 75 7
e 64 86 4
e 64 97 9
e 64 65 10
e 64 66 5
e 64 67 3
e 64 68 1
e 64 69 3
e 64 70 8
e 64 71 8
e 64 72 5
e 64 76 7
e 64 88 1
e 64 100 6
e 64 112 4
e 64 124 4
e 64 136 5
e 65 78 8
e 65 91 9
e 65 104 1
e 65 117 8
e 65 130 4
e 65 143 7
e 65 76 1
e 65 87 3
e 65 98 7
e 65 109 3
e 65 66 10
e 65 67 3
e 65 68 7
e 65 69 4
e 65 70 5
e 65 71 3
e 65 72 2
e 65 77 1
e 65 89 10
e 65 101 4
e 65 113 2
e 65 125 1
e 65 137 2
e 66 79 9
e 66 92 7
e 66 105 5
e 66 118 5
e 66 131 8
e 66 144 10
e 66 77 8
e 66 88 8
e 66 99 4
e 66 110 3
e 66 121 6
e 66 67 8
e 66 68 7
e 66 69 5
e 66 70 3
e 66 71 3
e 66 72 6
e 66 78 6
e 66 90 5
e 66 102 2
e 66 114 7
e 66 126 5
e 66 138 1
e 67 80 1
e 67 93 2
e 67 106 1
e 67 119 6
e 67 132 9
e 67 78 10
e 67 89 4
e 67 100 7
e 67 111 7
e 67 122 1
e 67 133 1
e 67 68 3
e 67 69 8
e 67 70 7
e 67 71 9
e 67 72 8
e 67 79 8
e 67 91 1
e 67 103 6
e 67 115 2
e 67 127 10
e 67 139 2
e 68 81 2
e 68 94 9
e 68 107 1
e 68 120 6
e 68 79 6
e 68 90 5
e 68 101 9
e 68 112 3
e 68 123 8
e 68 134 4
e 68 69 7
e 68 70 3
e 68 71 4
e 68 72 10
e 68 80 6
e 68 92 7
e 68 104 1
e 68 116 6
e 68 128 5
e 68 140 9
e 69 82 9
e 69 95 4
e 69 108 8
e 69 80 2
e 69 91 2
e 69 102 3
e 69 113 8
e 69 124 9
e 69 135 8
e 69 70 2
e 69 71 2
e 69 72 5
e 69 81 3
e 69 93 8
e 69 105 4
e 69 117 4
e 69 129 2
e 69 141 6
e 70 83 5
e 70 96 7
e 70 81 4
e 70 92 4
e 70 103 4
e 70 114 10
e 70 125 1
e 70 136 2
e 70 71 3
e 70 72 6
e 70 82 5
e 70 94 6
e 70 106 6
e 70 118 1
e 70 130 3
e 70 142 9
e 71 84 10
e 71 82 9
e 71 93 8
e 71 104 2
e 71 115 3
e 71 126 9
e 71 137 7
e 71 72 1
e 71 83 9
e 71 95 6
e 71 107 8
e 71 119 5
e 71 131 7
e 71 143 7
e 72 83 8
e 72 94 2
e 72 105 2
e 72 116 8
e 72 127 10
e 72 138 6
e 72 84 9
e 72 96 7
e 72 108 7
e 72 120 9
e 72 132 1
e 72 144 9
e 73 86 1
e 73 99 5
e 73 112 8
e 73 125 5
e 73 138 2
e 73 74 8
e 73 75 2
e 73 76 4
e 73 77 8
e 73 78 9
e 73 79 1
e 73 80 7
e 73 81 2
e 73 82 9
e 73 83 5
e 73 84 9
e 73 85 5
e 73 97 5
e 73 109 10
e 73 121 7
e 73 133 8
e 74 87 5
e 74 100 4
e 74 113 5
e 74 126 6
e 74 139 3
e 74 85 6
e 74 75 3
e 74 76 9
e 74 77 8
e 74 78 7
e 74 79 4
e 74 80 7
e 74 81 9
e 74 82 9
e 74 83 8
e 74 84 8
e 74 86 4
e 74 98 3
e 74 110 9
e 74 122 10
e 74 134 7
e 75 88 2
e 75 101 2
e 75 114 2
e 75 127 7
e 75 140 8
e 75 86 10
e 75 97 3
e 75 76 8
e 75 77 1
e 75 78 2
e 75 79 9
e 75 80 3
e 75 81 1
e 75 82 5
e 75 83 9
e 75 84 8
e 75 87 1
e 75 99 2
e 75 111 10
e 75 123 1
e 75 135 8
e 76 89 9
e 76 102 5
e 76 115 7
e 76 128 3
e 76 141 6
e 76 87 4
e 76 98 6
e 76 109 9
e 76 77 2
e 76 78 2
e 76 79 3
e 76 80 10
e 76 81 10
e 76 82 9
e 76 83 2
e 76 84 8
e 76 88 3
e 76 100 10
e 76 112 10
e 76 124 1
e 76 136 8
e 77 90 8
e 77 103 5
e 77 116 5
e 77 129 8
e 77 142 7
e 77 88 6
e 77 99 10
e 77 110 9
e 77 121 4
e 77 78 7
e 77 79 3
e 77 80 5
e 77 81 4
e 77 82 5
e 77 83 1
e 77 84 7
e 77 89 2
e 77 101 2
e 77 113 1
e 77 125 4
e 77 137 10
e 78 91 6
e 78 104 6
e 78 117 2
e 78 130 2
e 78 143 4
e 78 89 8
e 78 100 5
e 78 111 10
e 78 122 7
e 78 133 1
e 78 79 2
e 78 80 9
e 78 81 5
e 78 82 8
e 78 83 1
e 78 84 4
e 78 90 2
e 78 102 3
e 78 114 9
e 78 126 8
e 78 138 10
e 79 92 9
e 79 105 10
e 79 118 6
e 79 131 3
e 79 144 2
e 79 90 1
e 79 101 1
e 79 112 1
e 79 123 2
e 79 134 8
e 79 80 5
e 79 81 9
e 79 82 3
e 79 83 3
e 79 84 5
e 79 91 7
e 79 103 2
e 79 115 3
e 79 127 6
e 79 139 7
e 80 93 4
e 80 106 3
e 80 119 8
e 80 132 9
e 80 91 7
e 80 102 3
e 80 113 7
e 80 124 4
e 80 135 7
e 80 81 3
e 80 82 3
e 80 83 10
e 80 84 9
e 80 92 10
e 80 104 6
e 80 116 4
e 80 128 1
e 80 140 8
e 81 94 4
e 81 107 5
e 81 120 6
e 81 92 2
e 81 103 3
e 81 114 9
e 81 125 4
e 81 136 3
e 81 82 1
e 81 83 9
e 81 84 5
e 81 93 7
e 81 105 5
e 81 117 8
e 81 129 5
e 81 141 8
e 82 95 7
e 82 108 6
e 82 93 1
e 82 104 9
e 82 115 5
e 82 126 2
e 82 137 10
e 82 83 4
e 82 84 2
e 82 94 10
e 82 106 8
e 82 118 7
e 82 130 1
e 82 142 6
e 83 96 2
e 83 94 2
e 83 105 1
e 83 116 3
e 83 127 6
e 83 138 6
e 83 84 2
e 83 95 6
e 83 107 6
e 83 119 6
e 83 131 7
e 83 143 4
e 84 95 10
e 84 106 10
e 84 117 10
e 84 128 9
e 84 139 2
e 84 96 7
e 84 108 3
e 84 120 6
e 84 132 6
e 84 144 6
e 85 98 2
e 85 111 6
e 85 124 2
e 85 137 2
e 85 86 9
e 85 87 3
e 85 88 4
e 85 89 1
e 85 90 9
e 85 91 5
e 85 92 6
e 85 93 2
e 85 94 3
e 85 95 9
e 85 96 8
e 85 97 6
e 85 109 7
e 85 121 7
e 85 133 7
e 86 99 6
e 86 112 4
e 86 125 7
e 86 138 10
e 86 97 5
e 86 87 10
e 86 88 8
e 86 89 1
e 86 90 1
e 86 91 1
e 86 92 4
e 86 93 4
e 86 94 1
e 86 95 3
e 86 96 9
e 86 98 3
e 86 110 5
e 86 122 10
e 86 134 9
e 87 100 7
e 87 113 6
e 87 126 7
e 87 139 10
e 87 98 4
e 87 109 10
e 87 88 9
e 87 89 8
e 87 90 4
e 87 91 7
e 87 92 4
e 87 93 3
e 87 94 4
e 87 95 1
e 87 96 2
e 87 99 4
e 87 111 1
e 87 123 6
e 87 135 4
e 88 101 1
e 88 114 5
e 88 127 1
e 88 140 7
e 88 99 9
e 88 110 10
e 88 121 5
e 88 89 9
e 88 90 5
e 88 91 1
e 88 92 10
e 88 93 8
e 88 94 9
e 88 95 4
e 88 96 4
e 88 100 8
e 88 112 6
e 88 124 5
e 88 136 10
e 89 102 5
e 89 115 1
e 89 128 6
e 89 141 7
e 89 100 1
e 89 111 10
e 89 122 10
e 89 133 9
e 89 90 1
e 89 91 9
e 89 92 1
e 89 93 7
e 89 94 2
e 89 95 4
e 89 96 3
e 89 101 5
e 89 113 3
e 89 125 2
e 89 137 5
e 90 103 7
e 90 116 6
e 90 129 2
e 90 142 8
e 90 101 2
e 90 112 1
e 90 123 4
e 90 134 4
e 90 91 10
e 90 92 10
e 90 93 6
e 90 94 3
e 90 95 9
e 90 96 5
e 90 102 5
e 90 114 1
e 90 126 7
e 90 138 6
e 91 104 5
e 91 117 8
e 91 130 5
e 91 143 1
e 91 102 5
e 91 113 4
e 91 124 7
e 91 135 8
e 91 92 3
e 91 93 7
e 91 94 10
e 91 95 6
e 91 96 2
e 91 103 7
e 91 115 5
e 91 127 10
e 91 139 10
e 92 105 4
e 92 118 4
e 92 131 6
e 92 144 7
e 92 103 7
e 92 114 6
e 92 125 8
e 92 136 2
e 92 93 3
e 92 94 9
e 92 95 8
e 92 96 3
e 92 104 2
e 92 116 6
e 92 128 6
e 92 140 7
e 93 106 5
e 93 119 5
e 93 132 10
e 93 104 2
e 93 115 10
e 93 126 10
e 93 137 2
e 93 94 4
e 93 95 3
e 93 96 8
e 93 105 10
e 93 117 1
e 93 129 2
e 93 141 2
e 94 107 9
e 94 120 3
e 94 105 2
e 94 116 8
e 94 127 2
e 94 138 4
e 94 95 8
e 94 96 8
e 94 106 2
e 94 118 9
e 94 130 2
e 94 142 3
e 95 108 8
e 95 106 4
e 95 117 2
e 95 128 3
e 95 139 5
e 95 96 2
e 95 107 2
e 95 119 1
e 95 131 8
e 95 143 2
e 96 107 5
e 96 118 10
e 96 129 4
e 96 140 7
e 96 108 2
e 96 120 10
e 96 132 5
e 96 144 2
e 97 110 4
e 97 123 2
e 97 136 5
e 97 98 6
e 97 99 7
e 97 100 2
e 97 101 6
e 97 102 7
e 97 103 9
e 97 104 7
e 97 105 2
e 97 106 8
e 97 107 6
e 97 108 8
e 97 109 3
e 97 121 9
e 97 133 2
e 98 111 8
e 98 124 7
e 98 137 2
e 98 109 4
e 98 99 6
e 98 100 4
e 98 101 8
e 98 102 10
e 98 103 10
e 98 104 9
e 98 105 6
e 98 106 9
e 98 107 7
e 98 108 6
e 98 110 2
e 98 122 4
e 98 134 10
e 99 112 4
e 99 125 1
e 99 138 1
e 99 110 8
e 99 121 6
e 99 100 5
e 99 101 5
e 99 102 6
e 99 103 1
e 99 104 10
e 99 105 7
e 99 106 4
e 99 107 3
e 99 108 6
e 99 111 6
e 99 123 8
e 99 135 5
e 100 113 8
e 100 126 5
e 100 139 7
e 100 111 3
e 100 122 8
e 100 133 4
e 100 101 9
e 100 102 1
e 100 103 4
e 100 104 6
e 100 105 3
e 100 106 6
e 100 107 2
e 100 108 2
e 100 112 7
e 100 124 2
e 100 136 1
e 101 114 3
e 101 127 5
e 101 140 4
e 101 112 8
e 101 123 9
e 101 134 10
e 101 102 7
e 101 103 6
e 101 104 9
e 101 105 1
e 101 106 7
e 101 107 9
e 101 108 8
e 101 113 8
e 101 125 5
e 101 137 7
e 102 115 8
e 102 128 4
e 102 141 1
e 102 113 4
e 102 124 6
e 102 135 8
e 102 103 4
e 102 104 2
e 102 105 3
e 102 106 5
e 102 107 4
e 102 108 2
e 102 114 4
e 102 126 5
e 102 138 6
e 103 116 6
e 103 129 9
e 103 142 5
e 103 114 6
e 103 125 8
e 103 136 5
e 103 104 8
e 103 105 9
e 103 106 4
e 103 107 9
e 103 108 2
e 103 115 7
e 103 127 10
e 103 139 7
e 104 117 6
e 104 130 8
e 104 143 10
e 104 115 8
e 104 126 10
e 104 137 2
e 104 105 5
e 104 106 6
e 104 107 4
e 104 108 1
e 104 116 3
e 104 128 10
e 104 140 7
e 105 118 8
e 105 131 3
e 105 144 10
e 105 116 9
e 105 127 4
e 105 138 2
e 105 106 1
e 105 107 8
e 105 108 8
e 105 117 5
e 105 129 7
e 105 141 10
e 106 119 9
e 106 132 2
e 106 117 8
e 106 128 10
e 106 139 4
e 106 107 8
e 106 108 1
e 106 118 8
e 106 130 4
e 106 142 2
e 107 120 10
e 107 118 7
e 107 129 8
e 107 140 5
e 107 108 7
e 107 119 7
e 107 131 3
e 107 143 4
e 108 119 7
e 108 130 4
e 108 141 10
e 108 120 10
e 108 132 1
e 108 144 9
e 109 122 5
e 109 135 6
e 109 110 5
e 109 111 5
e 109 112 2
e 109 113 6
e 109 114 10
e 109 115 3
e 109 116 3
e 109 117 2
e 109 118 9
e 109 119 1
e 109 120 10
e 109 121 2
e 109 133 5
e 110 123 8
e 110 136 5
e 110 121 8
e 110 111 1
e 110 112 8
e 110 113 9
e 110 114 10
e 110 115 1
e 110 116 3
e 110 117 9
e 110 118 7
e 110 119 5
e 110 120 6
e 110 122 10
e 110 134 1
e 111 124 8
e 111 137 1
e 111 122 5
e 111 133 8
e 111 112 7
e 111 113 6
e 111 114 10
e 111 115 5
e 111 116 3
e 111 117 10
e 111 118 9
e 111 119 2
e 111 120 4
e 111 123 1
e 111 135 2
e 112 125 4
e 112 138 4
e 112 123 3
e 112 134 1
e 112 113 8
e 112 114 2
e 112 115 6
e 112 116 1
e 112 117 10
e 112 118 9
e 112 119 1
e 112 120 6
e 112 124 2
e 112 136 8
e 113 126 1
e 113 139 6
e 113 124 1
e 113 135 7
e 113 114 6
e 113 115 5
e 113 116 3
e 113 117 6
e 113 118 2
e 113 119 3
e 113 120 7
e 113 125 10
e 113 137 10
e 114 127 10
e 114 140 8
e 114 125 5
e 114 136 3
e 114 115 8
e 114 116 9
e 114 117 5
e 114 118 7
e 114 119 3
e 114 120 6
e 114 126 3
e 114 138 4
e 115 128 9
e 115 141 7
e 115 126 3
e 115 137 8
e 115 116 5
e 115 117 9
e 115 118 1
e 115 119 2
e 115 120 5
e 115 127 8
e 115 139 9
e 116 129 2
e 116 142 7
e 116 127 10
e 116 138 6
e 116 117 4
e 116 118 1
e 116 119 8
e 116 120 9
e 116 128 1
e 116 140 10
e 117 130 2
e 117 143 6
e 117 128 6
e 117 139 1
e 117 118 2
e 117 119 3
e 117 120 10
e 117 129 1
e 117 141 2
e 118 131 7
e 118 144 6
e 118 129 3
e 118 140 10
e 118 119 1
e 118 120 2
e 118 130 2
e 118 142 9
e 119 132 4
e 119 130 10
e 119 141 3
e 119 120 8
e 119 131 10
e 119 143 8
e 120 131 10
e 120 142 4
e 120 132 9
e 120 144 9
e 121 134 3
e 121 122 5
e 121 123 7
e 121 124 6
e 121 125 6
e 121 126 2
e 121 127 5
e 121 128 4
e 121 129 9
e 121 130 5
e 121 131 4
e 121 132 9
e 121 133 7
e 122 135 8
e 122 133 9
e 122 123 2
e 122 124 7
e 122 125 6
e 122 126 5
e 122 127 4
e 122 128 7
e 122 129 8
e 122 130 6
e 122 131 3
e 122 132 7
e 122 134 9
e 123 136 1
e 123 134 5
e 123 124 8
e 123 125 5
e 123 126 5
e 123 127 1
e 123 128 6
e 123 129 1
e 123 130 9
e 123 131 8
e 123 132 2
e 123 135 10
e 124 137 1
e 124 135 5
e 124 125 2
e 124 126 8
e 124 127 9
e 124 128 10
e 124 129 9
e 124 130 10
e 124 131 1
e 124 132 2
e 124 136 10
e 125 138 8
e 125 136 2
e 125 126 1
e 125 127 5
e 125 128 8
e 125 129 5
e 125 130 3
e 125 131 4
e 125 132 4
e 125 137 4
e 126 139 9
e 126 137 9
e 126 127 9
e 126 128 7
e 126 129 2
e 126 130 10
e 126 131 2
e 126 132 10
e 126 138 6
e 127 140 7
e 127 138 3
e 127 128 5
e 127 129 3
e 127 130 1
e 127 131 9
e 127 132 9
e 127 139 1
e 128 141 5
e 128 139 5
e 128 129 3
e 128 130 2
e 128 131 2
e 128 132 9
e 128 140 7
e 129 142 5
e 129 140 2
e 129 130 3
e 129 131 3
e 129 132 4
e 129 141 9
e 130 143 7
e 130 141 8
e 130 131 6
e 130 132 6
e 130 142 4
e 131 144 7
e 131 142 6
e 131 132 9
e 131 143 5
e 132 143 2
e 132 144 3
e 133 134 4
e 133 135 3
e 133 136 8
e 133 137 9
e 133 138 10
e 133 139 3
e 133 140 8
e 133 141 10
e 133 142 6
e 133 143 10
e 133 144 4
e 134 135 4
e 134 136 3
e 134 137 2
e 134 138 9
e 134 139 3
e 134 140 3
e 134 141 6
e 134 142 5
e 134 143 6
e 134 144 8
e 135 136 7
e 135 137 7
e 135 138 9
e 135 139 1
e 135 140 2
e 135 141 8
e 135 142 9
e 135 143 4
e 135 144 5
e 136 137 9
e 136 138 9
e 136 139 6
e 136 140 5
e 136 141 5
e 136 142 8
e 136 143 8
e 136 144 6
e 137 138 3
e 137 139 2
e 137 140 8
e 137 141 9
e 137 142 7
e 137 143 1
e 137 144 2
e 138 139 1
e 138 140 4
e 138 141 9
e 138 142 4
e 138 143 2
e 138 144 1
e 139 140 3
e 139 141 5
e 139 142 7
e 139 143 6
e 139 144 9
e 140 141 4
e 140 142 4
e 140 143 8
e 140 144 5
e 141 142 6
e 141 143 7
e 141 144 9
e 142 143 8
e 142 144 3
e 143 144 3